c This is QMaxSAT 2017 based on 14.07
c This is Glucose 3.0
c This is MiniSat 2.2.0
c WARNING: for repeatability, setting FPU to use double precision
c card = mrwto, comp = 0, pmodel = 0, narr = 6, mct = 127, verb = 0
cr firstCPXsol 0 0 0
c top = 79249421
c |  Number of variables:    34848                                            |
c |  Number of clauses:      4415997                                          |
c |  Weight of hard clauses: 79249421                                         |
c |  Number of soft clauses: 103572                                           |
c |  Number of unit soft clauses: 0                                           |
c |  Maximum Cardinality (by unit): 501292740    (0           )               |
c last restart ## conflicts  :  22 6199 
o 562544 | cpuTime 11.3986 s
c Sum of weights = 83548790
c A number of soft clauses remained = 17262
c MRWTO encoding for Pseudo-Boolean Constraints
c sizeMax=65536
c No.0 Divisor=15	generated by pow1
c No.1 Divisor=14	generated by pow1
c No.2 Divisor=14	generated by pow1
c No.3 Divisor=15	generated by pow1
c No.4 Divisor=15	generated by pow1
c p0= 15	p1= 14	p2= 14	p3= 15	p4= 15	
c number of digits = 6
c linkingVar[0].size = 15, linkingVar[1].size = 14, linkingVar[2].size = 14, linkingVar[3].size = 15, linkingVar[4].size = 13, linkingVar[5].size = 1, 
c Pseudo-Boolean Constraints: 703743 variables and 9091362 clauses
c Sum of weights = 83548790
c A number of soft clauses remained = 17262
c MRWTO encoding for Pseudo-Boolean Constraints
c sizeMax=65536
c No.0 Divisor=15	generated by pow1
c No.1 Divisor=14	generated by pow1
c No.2 Divisor=14	generated by pow1
c No.3 Divisor=15	generated by pow1
c No.4 Divisor=15	generated by pow1
c p0= 15	p1= 14	p2= 14	p3= 15	p4= 15	
c number of digits = 6
c linkingVar[0].size = 15, linkingVar[1].size = 14, linkingVar[2].size = 14, linkingVar[3].size = 15, linkingVar[4].size = 13, linkingVar[5].size = 1, 
c Pseudo-Boolean Constraints: 703743 variables and 9091362 clauses
c Sum of weights = 83548790
c A number of soft clauses remained = 17262
c MRWTO encoding for Pseudo-Boolean Constraints
c sizeMax=65536
c No.0 Divisor=15	generated by pow1
c No.1 Divisor=14	generated by pow1
c No.2 Divisor=14	generated by pow1
c No.3 Divisor=15	generated by pow1
c No.4 Divisor=15	generated by pow1
c p0= 15	p1= 14	p2= 14	p3= 15	p4= 15	
c number of digits = 6
c linkingVar[0].size = 15, linkingVar[1].size = 14, linkingVar[2].size = 14, linkingVar[3].size = 15, linkingVar[4].size = 13, linkingVar[5].size = 1, 
c Pseudo-Boolean Constraints: 703743 variables and 9091362 clauses
c Sum of weights = 83548790
c A number of soft clauses remained = 17262
c MRWTO encoding for Pseudo-Boolean Constraints
c sizeMax=65536
c No.0 Divisor=15	generated by pow1
c No.1 Divisor=14	generated by pow1
c No.2 Divisor=14	generated by pow1
c No.3 Divisor=15	generated by pow1
c No.4 Divisor=15	generated by pow1
c p0= 15	p1= 14	p2= 14	p3= 15	p4= 15	
c number of digits = 6
c linkingVar[0].size = 15, linkingVar[1].size = 14, linkingVar[2].size = 14, linkingVar[3].size = 15, linkingVar[4].size = 13, linkingVar[5].size = 1, 
c Pseudo-Boolean Constraints: 703743 variables and 9091362 clauses
c Sum of weights = 83548790
c A number of soft clauses remained = 17262
c MRWTO encoding for Pseudo-Boolean Constraints
c sizeMax=65536
c No.0 Divisor=15	generated by pow1
c No.1 Divisor=14	generated by pow1
c No.2 Divisor=14	generated by pow1
c No.3 Divisor=15	generated by pow1
c No.4 Divisor=15	generated by pow1
c p0= 15	p1= 14	p2= 14	p3= 15	p4= 15	
c number of digits = 6
c linkingVar[0].size = 15, linkingVar[1].size = 14, linkingVar[2].size = 14, linkingVar[3].size = 15, linkingVar[4].size = 13, linkingVar[5].size = 1, 
c Pseudo-Boolean Constraints: 703743 variables and 9091362 clauses
c Sum of weights = 83548790
c A number of soft clauses remained = 17262
c MRWTO encoding for Pseudo-Boolean Constraints
c sizeMax=65536
c No.0 Divisor=15	generated by pow1
c No.1 Divisor=14	generated by pow1
c No.2 Divisor=14	generated by pow1
c No.3 Divisor=15	generated by pow1
c No.4 Divisor=15	generated by pow1
c p0= 15	p1= 14	p2= 14	p3= 15	p4= 15	
c number of digits = 6
c linkingVar[0].size = 15, linkingVar[1].size = 14, linkingVar[2].size = 14, linkingVar[3].size = 15, linkingVar[4].size = 13, linkingVar[5].size = 1, 
c Pseudo-Boolean Constraints: 703743 variables and 9091362 clauses
c last restart ## conflicts  :  16044 95415 
o 357055 | cpuTime 89.5214 s
c last restart ## conflicts  :  2023 118928 
o 290516 | cpuTime 192.725 s
c last restart ## conflicts  :  3948 70335 
o 264933 | cpuTime 400.833 s
c last restart ## conflicts  :  1102 180841 
o 223772 | cpuTime 965.618 s
c last restart ## conflicts  :  1074 43842 
o 139764 | cpuTime 1073.15 s
s UNKNOWN
c Search is stopped by a limit (maybe time-limit)
cr positiVarArr: [ | 110(1->105) | 264(1->127) | 285(1->16) | 403(1->2) | 646(1->113) | 773(1->108) | 894(2->97) | 1002(3->73) | 1067(4->6) | 1243(5->50) | 1371(6->46) | 1516(7->59) | 1711(8->122) | 1805(9->84) | 1952(10->99) | 2046(11->61) | 2191(12->74) | 2291(13->42) | 2379(14->1) | 2549(15->36) | 2714(16->69) | 2781(17->4) | 2985(18->76) | 3166(19->125) | 3266(20->93) | 3324(21->19) | 3448(22->11) | 3590(23->21) | 3708(24->7) | 3871(25->38) | 4066(26->101) | 4136(27->39) | 4262(28->33) | 4375(29->14) | 4534(30->41) | 4680(31->55) | 4785(32->28) | 4977(33->88) | 5047(34->26) | 5272(35->119) | 5381(36->96) | 5537(37->120) | 5609(38->60) | 5715(39->34) | 5917(40->104) | 6025(41->80) | 6200(42->123) | 6288(43->79) | 6340(44->1) | 6517(45->44) | 6661(46->56) | 6855(47->118) | 6923(48->54) | 7059(49->58) | 7185(50->52) | 7386(51->121) | 7508(52->111) | 7578(53->49) | 7776(54->115) | 7838(55->45) | 7982(56->57) | 8108(57->51) | 8301(58->112) | 8403(59->82) | 8534(60->81) | 8647(61->62) | 8789(62->72) | 8927(63->78) | 8994(64->13) | 9138(65->25) | 9275(66->30) | 9467(67->90) | 9584(68->75) | 9751(69->110) | 9802(70->29) | 9971(71->66) | 10045(72->8) | 10187(73->18) | 10378(74->77) | 10503(75->70) | 10681(76->116) | 10724(77->27) | 10946(78->117) | 10983(79->22) | 11160(80->67) | 11268(81->43) | 11440(82->83) | 11490(83->1) | 11706(84->85) | 11851(85->98) | 11882(86->1) | 12103(87->86) | 12236(88->87) | 12405(89->124) | 12478(90->65) | 12562(91->17) | 12766(92->89) | 12880(93->71) | 12946(94->5) | 13173(95->100) | 13319(96->114) | 13432(97->95) | 13469(98->1) | 13610(99->9) | 13729(100->1) | 13875(101->10) | 14028(102->31) | 14152(103->23) | 14355(104->94) | 14433(105->40) | 14540(106->15) | 14710(107->53) | 14895(108->106) | 14933(109->12) | 15162(110->109) | 15249(111->64) | 15420(112->103) | 15556(113->107) | 15707(114->126) | 15716(115->3) | 15908(116->63) | 16045(117->68) | 16133(118->24) | 16261(119->20) | 16420(120->47) | 16607(121->102) | 16669(122->32) | 16861(123->92) | 16938(124->37) | 17124(125->91) | 17200(126->35) | 17345(127->48) | ]
cr the 1-th chain: [ 1->105->40->104->94->5->50->52->111->64->13->42->123->92->89->124->37->120->47->118->24->7->59->82->83->1 ] (#non-depot=24) {#cumul.=25}
cr the 2-th chain: [ 1->127->48->54->115->3->73->18->76->116->63->78->117->68->75->70->29->14->1 ] (#non-depot=17) {#cumul.=42}
cr the 3-th chain: [ 1->16->69->110->109->12->74->77->27->39->34->26->101->10->99->9->84->85->98->1 ] (#non-depot=18) {#cumul.=60}
cr the 4-th chain: [ 1->2->97->95->100->1 ] (#non-depot=4) {#cumul.=64}
cr the 5-th chain: [ 1->113->107->53->49->58->112->103->23->21->19->125->91->17->4->6->46->56->57->51->121->102->31->55->45->44->1 ] (#non-depot=25) {#cumul.=89}
cr the 6-th chain: [ 1->108->106->15->36->96->114->126->35->119->20->93->71->66->30->41->80->67->90->65->25->38->60->81->43->79->22->11->61->62->72->8->122->32->28->33->88->87->86->1 ] (#non-depot=38) {#cumul.=127}
c Latest Answer = 0 by 6 loops
c restarts              : 3632
c conflicts             : 836788         (233 /sec)
c decisions             : 98787284       (0.00 % random) (27454 /sec)
c propagations          : 25703024348    (7143008 /sec)
c conflict literals     : 137093170      (33.44 % deleted)
c Memory used           : 5992.00 MB
c CPU time              : 3598.35 s
